p cnf 304 1080
e 220 221 222 223 224 225 226 227 228 229 230 231 232 233 234 235 236 237 238 239 240 241 242 243 244 245 246 247 248 249 250 251 252 253 254 255 256 257 258 259 260 261 262 263 264 265 266 267 268 269 270 271 272 273 274 275 276 277 278 279 280 281 282 283 284 285 286 287 288 289 290 291 292 293 294 295 0
a 296 297 298 0
e 1 2 3 4 5 6 7 8 9 10 11 12 13 14 15 16 17 18 19 20 21 22 23 24 25 26 27 28 29 30 31 32 33 34 35 36 37 38 39 40 41 42 43 44 45 46 47 48 49 50 51 52 53 54 55 56 57 58 59 60 61 62 63 64 65 66 67 68 69 70 71 72 73 74 75 76 77 78 79 80 81 82 83 84 85 86 87 88 89 90 91 92 93 94 95 96 97 98 99 100 101 102 103 104 105 106 107 108 109 110 111 112 113 114 115 116 117 118 119 120 121 122 123 124 125 126 127 128 129 130 131 132 133 134 135 136 137 138 139 140 141 142 143 144 145 146 147 148 149 150 151 152 153 154 155 156 157 158 159 160 161 162 163 164 165 166 167 168 169 170 171 172 173 174 175 176 177 178 179 180 181 182 183 184 185 186 187 188 189 190 191 192 193 194 195 196 197 198 199 200 201 202 203 204 205 206 207 208 209 210 211 212 213 214 215 216 217 218 219 299 300 301 302 303 304 0
-299 -297 296 298 0
-300 -297 296 298 0
-301 -297 296 298 0
-297 296 298 302 0
-303 -297 296 298 0
-304 -297 296 298 0
-299 -298 -296 297 0
-300 -298 -296 297 0
-298 -296 297 301 0
-302 -298 -296 297 0
-303 -298 -296 297 0
-304 -298 -296 297 0
-299 -296 297 298 0
-296 297 298 300 0
-301 -296 297 298 0
-302 -296 297 298 0
-303 -296 297 298 0
-304 -296 297 298 0
-298 296 297 299 0
-300 -298 296 297 0
-301 -298 296 297 0
-302 -298 296 297 0
-303 -298 296 297 0
-304 -298 296 297 0
-299 296 297 298 0
-300 296 297 298 0
-301 296 297 298 0
-302 296 297 298 0
-303 296 297 298 0
296 297 298 304 0
-299 -298 -297 296 0
-300 -298 -297 296 0
-301 -298 -297 296 0
-302 -298 -297 296 0
-298 -297 296 303 0
-304 -298 -297 296 0
-221 -99 0
-221 -88 0
-222 -100 0
-222 -89 0
-223 -101 0
-223 -90 0
-224 -102 0
-224 -91 0
-225 -103 0
-225 -92 0
-226 -104 0
-226 -93 0
-227 -105 0
-227 -94 0
-228 -106 0
-228 -95 0
-229 -107 0
-229 -96 0
-230 -108 0
-230 -97 0
-232 -121 0
-232 -99 0
-233 -122 0
-233 -100 0
-234 -123 0
-234 -101 0
-235 -124 0
-235 -102 0
-236 -125 0
-236 -103 0
-237 -126 0
-237 -104 0
-238 -127 0
-238 -105 0
-239 -128 0
-239 -106 0
-240 -129 0
-240 -107 0
-241 -130 0
-241 -108 0
-243 -143 0
-243 -99 0
-244 -144 0
-244 -100 0
-245 -145 0
-245 -101 0
-246 -146 0
-246 -102 0
-247 -147 0
-247 -103 0
-248 -148 0
-248 -104 0
-249 -149 0
-249 -105 0
-250 -150 0
-250 -106 0
-251 -151 0
-251 -107 0
-252 -152 0
-252 -108 0
-254 -165 0
-254 -99 0
-255 -166 0
-255 -100 0
-256 -167 0
-256 -101 0
-257 -168 0
-257 -102 0
-258 -169 0
-258 -103 0
-259 -170 0
-259 -104 0
-260 -171 0
-260 -105 0
-261 -172 0
-261 -106 0
-262 -173 0
-262 -107 0
-263 -174 0
-263 -108 0
-265 -187 0
-265 -99 0
-266 -188 0
-266 -100 0
-267 -189 0
-267 -101 0
-268 -190 0
-268 -102 0
-269 -191 0
-269 -103 0
-270 -192 0
-270 -104 0
-271 -193 0
-271 -105 0
-272 -194 0
-272 -106 0
-273 -195 0
-273 -107 0
-274 -196 0
-274 -108 0
-276 -209 0
-276 -99 0
-278 -210 0
-278 -100 0
-280 -211 0
-280 -101 0
-282 -212 0
-282 -102 0
-284 -213 0
-284 -103 0
-286 -214 0
-286 -104 0
-288 -215 0
-288 -105 0
-290 -216 0
-290 -106 0
-292 -217 0
-292 -107 0
-294 -218 0
-294 -108 0
-220 99 0
-220 88 0
-221 100 0
-221 89 0
-222 101 0
-222 90 0
-223 102 0
-223 91 0
-224 103 0
-224 92 0
-225 104 0
-225 93 0
-226 105 0
-226 94 0
-227 106 0
-227 95 0
-228 107 0
-228 96 0
-229 108 0
-229 97 0
-230 109 0
-230 98 0
-231 121 0
-231 99 0
-232 122 0
-232 100 0
-233 123 0
-233 101 0
-234 124 0
-234 102 0
-235 125 0
-235 103 0
-236 126 0
-236 104 0
-237 127 0
-237 105 0
-238 128 0
-238 106 0
-239 129 0
-239 107 0
-240 130 0
-240 108 0
-241 131 0
-241 109 0
-242 143 0
-242 99 0
-243 144 0
-243 100 0
-244 145 0
-244 101 0
-245 146 0
-245 102 0
-246 147 0
-246 103 0
-247 148 0
-247 104 0
-248 149 0
-248 105 0
-249 150 0
-249 106 0
-250 151 0
-250 107 0
-251 152 0
-251 108 0
-252 153 0
-252 109 0
-253 165 0
-253 99 0
-254 166 0
-254 100 0
-255 167 0
-255 101 0
-256 168 0
-256 102 0
-257 169 0
-257 103 0
-258 170 0
-258 104 0
-259 171 0
-259 105 0
-260 172 0
-260 106 0
-261 173 0
-261 107 0
-262 174 0
-262 108 0
-263 175 0
-263 109 0
-264 187 0
-264 99 0
-265 188 0
-265 100 0
-266 189 0
-266 101 0
-267 190 0
-267 102 0
-268 191 0
-268 103 0
-269 192 0
-269 104 0
-270 193 0
-270 105 0
-271 194 0
-271 106 0
-272 195 0
-272 107 0
-273 196 0
-273 108 0
-274 197 0
-274 109 0
-275 209 0
-275 99 0
-276 210 0
-276 100 0
-278 211 0
-278 101 0
-280 212 0
-280 102 0
-282 213 0
-282 103 0
-284 214 0
-284 104 0
-286 215 0
-286 105 0
-288 216 0
-288 106 0
-290 217 0
-290 107 0
-292 218 0
-292 108 0
-294 219 0
-294 109 0
-277 -100 0
-279 -101 0
-281 -102 0
-283 -103 0
-285 -104 0
-287 -105 0
-289 -106 0
-291 -107 0
-293 -108 0
-295 -109 0
-304 -220 -9 0
-221 -17 -8 0
-222 -25 -16 0
-223 -33 -24 0
-224 -41 -32 0
-225 -49 -40 0
-226 -57 -48 0
-227 -65 -56 0
-228 -73 -64 0
-229 -81 -72 0
-299 -231 -9 0
-232 -110 -17 0
-233 -111 -25 0
-234 -112 -33 0
-235 -113 -41 0
-236 -114 -49 0
-237 -115 -57 0
-238 -116 -65 0
-239 -117 -73 0
-240 -118 -81 0
-300 -242 -9 0
-243 -132 -17 0
-244 -133 -25 0
-245 -134 -33 0
-246 -135 -41 0
-247 -136 -49 0
-248 -137 -57 0
-249 -138 -65 0
-250 -139 -73 0
-251 -140 -81 0
-301 -253 -9 0
-254 -154 -17 0
-255 -155 -25 0
-256 -156 -33 0
-257 -157 -41 0
-258 -158 -49 0
-259 -159 -57 0
-260 -160 -65 0
-261 -161 -73 0
-262 -162 -81 0
-302 -264 -9 0
-265 -176 -17 0
-266 -177 -25 0
-267 -178 -33 0
-268 -179 -41 0
-269 -180 -49 0
-270 -181 -57 0
-271 -182 -65 0
-272 -183 -73 0
-273 -184 -81 0
-303 -275 -9 0
-276 -198 -17 0
-278 -199 -25 0
-280 -200 -33 0
-282 -201 -41 0
-284 -202 -49 0
-286 -203 -57 0
-288 -204 -65 0
-290 -205 -73 0
-292 -206 -81 0
-8 304 0
-16 8 0
-24 16 0
-32 24 0
-40 32 0
-48 40 0
-56 48 0
-64 56 0
-72 64 0
-80 72 0
-1 80 0
-304 8 0
-8 16 0
-16 24 0
-24 32 0
-32 40 0
-40 48 0
-48 56 0
-56 64 0
-64 72 0
-72 80 0
-80 1 0
-17 9 0
-25 17 0
-33 25 0
-41 33 0
-49 41 0
-57 49 0
-65 57 0
-73 65 0
-81 73 0
-2 231 0
-2 299 0
-299 -231 2 0
-3 242 0
-3 300 0
-300 -242 3 0
-4 253 0
-4 301 0
-301 -253 4 0
-5 264 0
-5 302 0
-302 -264 5 0
-6 275 0
-6 303 0
-303 -275 6 0
-7 220 0
-7 304 0
-304 -220 7 0
2 3 4 5 6 7 9 0
-10 232 0
-10 110 0
-232 -110 10 0
-11 243 0
-11 132 0
-243 -132 11 0
-12 254 0
-12 154 0
-254 -154 12 0
-13 265 0
-13 176 0
-265 -176 13 0
-14 276 0
-14 198 0
-276 -198 14 0
-15 221 0
-15 8 0
-221 -8 15 0
-9 10 11 12 13 14 15 17 0
-18 233 0
-18 111 0
-233 -111 18 0
-19 244 0
-19 133 0
-244 -133 19 0
-20 255 0
-20 155 0
-255 -155 20 0
-21 266 0
-21 177 0
-266 -177 21 0
-22 278 0
-22 199 0
-278 -199 22 0
-23 222 0
-23 16 0
-222 -16 23 0
-17 18 19 20 21 22 23 25 0
-26 234 0
-26 112 0
-234 -112 26 0
-27 245 0
-27 134 0
-245 -134 27 0
-28 256 0
-28 156 0
-256 -156 28 0
-29 267 0
-29 178 0
-267 -178 29 0
-30 280 0
-30 200 0
-280 -200 30 0
-31 223 0
-31 24 0
-223 -24 31 0
-25 26 27 28 29 30 31 33 0
-34 235 0
-34 113 0
-235 -113 34 0
-35 246 0
-35 135 0
-246 -135 35 0
-36 257 0
-36 157 0
-257 -157 36 0
-37 268 0
-37 179 0
-268 -179 37 0
-38 282 0
-38 201 0
-282 -201 38 0
-39 224 0
-39 32 0
-224 -32 39 0
-33 34 35 36 37 38 39 41 0
-42 236 0
-42 114 0
-236 -114 42 0
-43 247 0
-43 136 0
-247 -136 43 0
-44 258 0
-44 158 0
-258 -158 44 0
-45 269 0
-45 180 0
-269 -180 45 0
-46 284 0
-46 202 0
-284 -202 46 0
-47 225 0
-47 40 0
-225 -40 47 0
-41 42 43 44 45 46 47 49 0
-50 237 0
-50 115 0
-237 -115 50 0
-51 248 0
-51 137 0
-248 -137 51 0
-52 259 0
-52 159 0
-259 -159 52 0
-53 270 0
-53 181 0
-270 -181 53 0
-54 286 0
-54 203 0
-286 -203 54 0
-55 226 0
-55 48 0
-226 -48 55 0
-49 50 51 52 53 54 55 57 0
-58 238 0
-58 116 0
-238 -116 58 0
-59 249 0
-59 138 0
-249 -138 59 0
-60 260 0
-60 160 0
-260 -160 60 0
-61 271 0
-61 182 0
-271 -182 61 0
-62 288 0
-62 204 0
-288 -204 62 0
-63 227 0
-63 56 0
-227 -56 63 0
-57 58 59 60 61 62 63 65 0
-66 239 0
-66 117 0
-239 -117 66 0
-67 250 0
-67 139 0
-250 -139 67 0
-68 261 0
-68 161 0
-261 -161 68 0
-69 272 0
-69 183 0
-272 -183 69 0
-70 290 0
-70 205 0
-290 -205 70 0
-71 228 0
-71 64 0
-228 -64 71 0
-65 66 67 68 69 70 71 73 0
-74 240 0
-74 118 0
-240 -118 74 0
-75 251 0
-75 140 0
-251 -140 75 0
-76 262 0
-76 162 0
-262 -162 76 0
-77 273 0
-77 184 0
-273 -184 77 0
-78 292 0
-78 206 0
-292 -206 78 0
-79 229 0
-79 72 0
-229 -72 79 0
-73 74 75 76 77 78 79 81 0
-82 241 0
-82 119 0
-241 -119 82 0
-83 252 0
-83 141 0
-252 -141 83 0
-84 263 0
-84 163 0
-263 -163 84 0
-85 274 0
-85 185 0
-274 -185 85 0
-86 294 0
-86 207 0
-294 -207 86 0
-87 230 0
-87 80 0
-230 -80 87 0
-81 82 83 84 85 86 87 0
-88 220 0
-89 88 221 0
-90 89 222 0
-91 90 223 0
-92 91 224 0
-93 92 225 0
-94 93 226 0
-95 94 227 0
-96 95 228 0
-97 96 229 0
-98 97 230 0
-88 89 0
-89 90 0
-90 91 0
-91 92 0
-92 93 0
-93 94 0
-94 95 0
-95 96 0
-96 97 0
-97 98 0
-99 220 231 242 253 264 275 0
-100 99 221 232 243 254 265 276 0
-101 100 222 233 244 255 266 278 0
-102 101 223 234 245 256 267 280 0
-103 102 224 235 246 257 268 282 0
-104 103 225 236 247 258 269 284 0
-105 104 226 237 248 259 270 286 0
-106 105 227 238 249 260 271 288 0
-107 106 228 239 250 261 272 290 0
-108 107 229 240 251 262 273 292 0
-109 108 230 241 252 263 274 294 0
-99 100 277 0
-100 101 279 0
-101 102 281 0
-102 103 283 0
-103 104 285 0
-104 105 287 0
-105 106 289 0
-106 107 291 0
-107 108 293 0
-108 109 295 0
-110 299 0
-111 110 0
-112 111 0
-113 112 0
-114 113 0
-115 114 0
-116 115 0
-117 116 0
-118 117 0
-119 118 0
-120 119 0
-299 110 0
-110 111 0
-111 112 0
-112 113 0
-113 114 0
-114 115 0
-115 116 0
-116 117 0
-117 118 0
-118 119 0
-119 120 0
-121 231 0
-122 121 232 0
-123 122 233 0
-124 123 234 0
-125 124 235 0
-126 125 236 0
-127 126 237 0
-128 127 238 0
-129 128 239 0
-130 129 240 0
-131 130 241 0
-121 122 0
-122 123 0
-123 124 0
-124 125 0
-125 126 0
-126 127 0
-127 128 0
-128 129 0
-129 130 0
-130 131 0
-132 300 0
-133 132 0
-134 133 0
-135 134 0
-136 135 0
-137 136 0
-138 137 0
-139 138 0
-140 139 0
-141 140 0
-142 141 0
-300 132 0
-132 133 0
-133 134 0
-134 135 0
-135 136 0
-136 137 0
-137 138 0
-138 139 0
-139 140 0
-140 141 0
-141 142 0
-143 242 0
-144 143 243 0
-145 144 244 0
-146 145 245 0
-147 146 246 0
-148 147 247 0
-149 148 248 0
-150 149 249 0
-151 150 250 0
-152 151 251 0
-153 152 252 0
-143 144 0
-144 145 0
-145 146 0
-146 147 0
-147 148 0
-148 149 0
-149 150 0
-150 151 0
-151 152 0
-152 153 0
-154 301 0
-155 154 0
-156 155 0
-157 156 0
-158 157 0
-159 158 0
-160 159 0
-161 160 0
-162 161 0
-163 162 0
-164 163 0
-301 154 0
-154 155 0
-155 156 0
-156 157 0
-157 158 0
-158 159 0
-159 160 0
-160 161 0
-161 162 0
-162 163 0
-163 164 0
-165 253 0
-166 165 254 0
-167 166 255 0
-168 167 256 0
-169 168 257 0
-170 169 258 0
-171 170 259 0
-172 171 260 0
-173 172 261 0
-174 173 262 0
-175 174 263 0
-165 166 0
-166 167 0
-167 168 0
-168 169 0
-169 170 0
-170 171 0
-171 172 0
-172 173 0
-173 174 0
-174 175 0
-176 302 0
-177 176 0
-178 177 0
-179 178 0
-180 179 0
-181 180 0
-182 181 0
-183 182 0
-184 183 0
-185 184 0
-186 185 0
-302 176 0
-176 177 0
-177 178 0
-178 179 0
-179 180 0
-180 181 0
-181 182 0
-182 183 0
-183 184 0
-184 185 0
-185 186 0
-187 264 0
-188 187 265 0
-189 188 266 0
-190 189 267 0
-191 190 268 0
-192 191 269 0
-193 192 270 0
-194 193 271 0
-195 194 272 0
-196 195 273 0
-197 196 274 0
-187 188 0
-188 189 0
-189 190 0
-190 191 0
-191 192 0
-192 193 0
-193 194 0
-194 195 0
-195 196 0
-196 197 0
-198 303 0
-199 198 0
-200 199 0
-201 200 0
-202 201 0
-203 202 0
-204 203 0
-205 204 0
-206 205 0
-207 206 0
-208 207 0
-303 198 0
-198 199 0
-199 200 0
-200 201 0
-201 202 0
-202 203 0
-203 204 0
-204 205 0
-205 206 0
-206 207 0
-207 208 0
-209 275 0
-210 209 276 0
-211 210 278 0
-212 211 280 0
-213 212 282 0
-214 213 284 0
-215 214 286 0
-216 215 288 0
-217 216 290 0
-218 217 292 0
-219 218 294 0
-209 210 0
-210 211 0
-211 212 0
-212 213 0
-213 214 0
-214 215 0
-215 216 0
-216 217 0
-217 218 0
-218 219 0
-231 -220 0
-232 -221 0
-233 -222 0
-234 -223 0
-235 -224 0
-236 -225 0
-237 -226 0
-238 -227 0
-239 -228 0
-240 -229 0
-241 -230 0
-242 -220 0
-243 -221 0
-244 -222 0
-245 -223 0
-246 -224 0
-247 -225 0
-248 -226 0
-249 -227 0
-250 -228 0
-251 -229 0
-252 -230 0
-253 -220 0
-254 -221 0
-255 -222 0
-256 -223 0
-257 -224 0
-258 -225 0
-259 -226 0
-260 -227 0
-261 -228 0
-262 -229 0
-263 -230 0
-264 -220 0
-265 -221 0
-266 -222 0
-267 -223 0
-268 -224 0
-269 -225 0
-270 -226 0
-271 -227 0
-272 -228 0
-273 -229 0
-274 -230 0
-275 -220 0
-276 -221 0
-278 -222 0
-280 -223 0
-282 -224 0
-284 -225 0
-286 -226 0
-288 -227 0
-290 -228 0
-292 -229 0
-294 -230 0
-277 -221 0
-279 -222 0
-281 -223 0
-283 -224 0
-285 -225 0
-287 -226 0
-289 -227 0
-291 -228 0
-293 -229 0
-295 -230 0
-242 -231 0
-243 -232 0
-244 -233 0
-245 -234 0
-246 -235 0
-247 -236 0
-248 -237 0
-249 -238 0
-250 -239 0
-251 -240 0
-252 -241 0
-253 -231 0
-254 -232 0
-255 -233 0
-256 -234 0
-257 -235 0
-258 -236 0
-259 -237 0
-260 -238 0
-261 -239 0
-262 -240 0
-263 -241 0
-264 -231 0
-265 -232 0
-266 -233 0
-267 -234 0
-268 -235 0
-269 -236 0
-270 -237 0
-271 -238 0
-272 -239 0
-273 -240 0
-274 -241 0
-275 -231 0
-276 -232 0
-278 -233 0
-280 -234 0
-282 -235 0
-284 -236 0
-286 -237 0
-288 -238 0
-290 -239 0
-292 -240 0
-294 -241 0
-277 -232 0
-279 -233 0
-281 -234 0
-283 -235 0
-285 -236 0
-287 -237 0
-289 -238 0
-291 -239 0
-293 -240 0
-295 -241 0
-253 -242 0
-254 -243 0
-255 -244 0
-256 -245 0
-257 -246 0
-258 -247 0
-259 -248 0
-260 -249 0
-261 -250 0
-262 -251 0
-263 -252 0
-264 -242 0
-265 -243 0
-266 -244 0
-267 -245 0
-268 -246 0
-269 -247 0
-270 -248 0
-271 -249 0
-272 -250 0
-273 -251 0
-274 -252 0
-275 -242 0
-276 -243 0
-278 -244 0
-280 -245 0
-282 -246 0
-284 -247 0
-286 -248 0
-288 -249 0
-290 -250 0
-292 -251 0
-294 -252 0
-277 -243 0
-279 -244 0
-281 -245 0
-283 -246 0
-285 -247 0
-287 -248 0
-289 -249 0
-291 -250 0
-293 -251 0
-295 -252 0
-264 -253 0
-265 -254 0
-266 -255 0
-267 -256 0
-268 -257 0
-269 -258 0
-270 -259 0
-271 -260 0
-272 -261 0
-273 -262 0
-274 -263 0
-275 -253 0
-276 -254 0
-278 -255 0
-280 -256 0
-282 -257 0
-284 -258 0
-286 -259 0
-288 -260 0
-290 -261 0
-292 -262 0
-294 -263 0
-277 -254 0
-279 -255 0
-281 -256 0
-283 -257 0
-285 -258 0
-287 -259 0
-289 -260 0
-291 -261 0
-293 -262 0
-295 -263 0
-275 -264 0
-276 -265 0
-278 -266 0
-280 -267 0
-282 -268 0
-284 -269 0
-286 -270 0
-288 -271 0
-290 -272 0
-292 -273 0
-294 -274 0
-277 -265 0
-279 -266 0
-281 -267 0
-283 -268 0
-285 -269 0
-287 -270 0
-289 -271 0
-291 -272 0
-293 -273 0
-295 -274 0
-277 -276 0
-279 -278 0
-281 -280 0
-283 -282 0
-285 -284 0
-287 -286 0
-289 -288 0
-291 -290 0
-293 -292 0
-295 -294 0
